c uprop, v00.0, 
c reading from data/prog247.c.cnf
c done reading: 0.002126
p cnf 119 506
-60 -81 0
60 81 0
-66 -69 0
66 69 0
-71 -76 0
71 76 0
-63 -78 0
63 78 0
-73 -83 0
73 83 0
-85 -88 0
85 88 0
-60 90 0
60 -90 0
57 -60 -66 0
-57 60 66 0
-57 66 0
-57 60 0
-56 -57 66 0
-56 -57 60 0
-56 -57 0
56 57 -66 0
56 57 -60 0
-56 60 66 0
55 -66 -71 0
55 -57 -71 0
55 -57 -66 0
-55 66 71 0
-55 57 71 0
-55 57 66 0
-54 -55 71 0
-54 -55 66 0
-54 -55 57 0
54 55 -71 0
54 55 -66 0
54 55 -57 0
54 -57 -66 -71 0
-54 57 66 71 0
53 -71 -78 0
53 -55 -78 0
53 -55 -71 0
-53 71 78 0
-53 55 78 0
-53 55 71 0
-52 -53 78 0
-52 -53 71 0
-52 -53 55 0
52 53 -78 0
52 53 -71 0
52 53 -55 0
52 -55 -71 -78 0
-52 55 71 78 0
51 -78 -83 0
51 -53 -83 0
51 -53 -78 0
-51 78 83 0
-51 53 83 0
-51 53 78 0
-50 -51 83 0
-50 -51 78 0
-50 -51 53 0
50 51 -83 0
50 51 -78 0
50 51 -53 0
50 -53 -78 -83 0
-50 53 78 83 0
49 -83 -88 0
49 -51 -88 0
49 -51 -83 0
-49 83 88 0
-49 51 88 0
-49 51 83 0
-48 -49 88 0
-48 -49 83 0
-48 -49 51 0
48 49 -88 0
48 49 -83 0
48 49 -51 0
48 -51 -83 -88 0
-48 51 83 88 0
-58 88 0
49 -58 0
-49 58 -88 0
-49 -61 -88 0
49 -61 88 0
49 61 -88 0
-49 61 88 0
56 -67 0
-56 67 0
-56 -72 0
56 72 0
-54 -67 79 0
54 -79 0
54 67 -79 0
67 -79 0
54 -79 -84 0
-79 -84 0
67 -79 -84 0
-54 79 84 0
-67 79 84 0
54 67 -84 0
-52 -60 89 0
-52 -79 89 0
-60 -79 89 0
52 60 -89 0
52 79 -89 0
60 79 -89 0
52 -89 -91 0
60 -89 -91 0
79 -89 -91 0
-52 89 91 0
-60 89 91 0
-79 89 91 0
-52 -60 -79 91 0
52 60 79 -91 0
-50 -66 94 0
-50 -89 94 0
-66 -89 94 0
50 66 -94 0
50 89 -94 0
66 89 -94 0
50 -94 -97 0
66 -94 -97 0
89 -94 -97 0
-50 94 97 0
-66 94 97 0
-89 94 97 0
-50 -66 -89 97 0
50 66 89 -97 0
-48 -71 100 0
-48 -94 100 0
-71 -94 100 0
48 71 -100 0
48 94 -100 0
71 94 -100 0
48 -100 -101 0
71 -100 -101 0
94 -100 -101 0
-48 100 101 0
-71 100 101 0
-94 100 101 0
-48 -71 -94 101 0
48 71 94 -101 0
-61 -78 102 0
-61 -100 102 0
-78 -100 102 0
61 78 -102 0
61 100 -102 0
78 100 -102 0
61 -102 -103 0
78 -102 -103 0
100 -102 -103 0
-61 102 103 0
-78 102 103 0
-100 102 103 0
-61 -78 -100 103 0
61 78 100 -103 0
-58 -83 104 0
-58 -102 104 0
-83 -102 104 0
58 83 -104 0
58 102 -104 0
83 102 -104 0
58 -104 -105 0
83 -104 -105 0
102 -104 -105 0
-58 104 105 0
-83 104 105 0
-102 104 105 0
-58 -83 -102 105 0
58 83 102 -105 0
88 -106 0
104 -106 0
-88 -104 106 0
-88 -104 -107 0
88 104 -107 0
-88 104 107 0
88 -104 107 0
-90 -108 0
90 108 0
-72 -109 0
72 109 0
-84 -110 0
84 110 0
-91 -111 0
91 111 0
-97 -112 0
97 112 0
-101 -113 0
101 113 0
-103 -114 0
103 114 0
-105 -115 0
105 115 0
-107 -116 0
107 116 0
-106 -117 0
106 117 0
-64 -93 0
-64 -96 0
64 93 96 0
93 96 -118 0
-93 -96 -118 0
-93 96 118 0
93 -96 118 0
64 -74 0
-74 -99 0
-64 74 99 0
-64 99 -119 0
64 -99 -119 0
64 99 119 0
-64 -99 119 0
74 -86 0
-47 -86 0
47 -74 86 0
-45 47 -74 0
-45 -47 74 0
45 47 74 0
45 -47 -74 0
-44 86 0
-43 -44 0
43 44 -86 0
-41 43 -86 0
-41 -43 86 0
41 43 86 0
41 -43 -86 0
-40 44 0
-39 -40 0
39 40 -44 0
-37 39 -44 0
-37 -39 44 0
37 39 44 0
37 -39 -44 0
-36 40 0
-35 -36 0
35 36 -40 0
-33 35 -40 0
-33 -35 40 0
33 35 40 0
33 -35 -40 0
-32 36 0
-31 -32 0
31 32 -36 0
-29 31 -36 0
-29 -31 36 0
29 31 36 0
29 -31 -36 0
-28 99 0
-28 93 0
28 -93 -99 0
-27 -93 -99 0
-27 93 99 0
27 93 -99 0
27 -93 99 0
26 -47 -96 0
26 -28 -47 0
26 -28 -96 0
-26 47 96 0
-26 28 47 0
-26 28 96 0
-25 -26 47 0
-25 -26 96 0
-25 -26 28 0
25 26 -47 0
25 26 -96 0
25 26 -28 0
25 -28 -47 -96 0
-25 28 47 96 0
24 -43 -99 0
24 -26 -43 0
24 -26 -99 0
-24 43 99 0
-24 26 43 0
-24 26 99 0
-23 -24 43 0
-23 -24 99 0
-23 -24 26 0
23 24 -43 0
23 24 -99 0
23 24 -26 0
23 -26 -43 -99 0
-23 26 43 99 0
22 -39 -47 0
22 -24 -39 0
22 -24 -47 0
-22 39 47 0
-22 24 39 0
-22 24 47 0
-21 -22 39 0
-21 -22 47 0
-21 -22 24 0
21 22 -39 0
21 22 -47 0
21 22 -24 0
21 -24 -39 -47 0
-21 24 39 47 0
20 -35 -43 0
20 -22 -35 0
20 -22 -43 0
-20 35 43 0
-20 22 35 0
-20 22 43 0
-19 -20 35 0
-19 -20 43 0
-19 -20 22 0
19 20 -35 0
19 20 -43 0
19 20 -22 0
19 -22 -35 -43 0
-19 22 35 43 0
18 -31 -39 0
18 -20 -31 0
18 -20 -39 0
-18 31 39 0
-18 20 31 0
-18 20 39 0
-17 -18 31 0
-17 -18 39 0
-17 -18 20 0
17 18 -31 0
17 18 -39 0
17 18 -20 0
17 -20 -31 -39 0
-17 20 31 39 0
-16 35 0
-16 18 0
16 -18 -35 0
-15 -18 -35 0
-15 18 35 0
15 18 -35 0
15 -18 35 0
-14 31 0
-14 16 0
14 -16 -31 0
-16 -31 -59 0
16 31 -59 0
16 -31 59 0
-16 31 59 0
-65 -93 0
-65 -96 0
65 93 96 0
-70 93 96 0
-70 -93 -96 0
70 -93 96 0
70 93 -96 0
65 -77 0
-27 -77 0
27 -65 77 0
27 -65 -82 0
-27 65 -82 0
27 65 82 0
-27 -65 82 0
77 -87 0
-25 -87 0
25 -77 87 0
25 -77 -92 0
-25 77 -92 0
25 77 92 0
-25 -77 92 0
87 -95 0
-23 -95 0
23 -87 95 0
23 -87 -98 0
-23 87 -98 0
23 87 98 0
-23 -87 98 0
-46 95 0
-21 -46 0
21 46 -95 0
21 -42 -95 0
-21 -42 95 0
21 42 95 0
-21 42 -95 0
-38 46 0
-19 -38 0
19 38 -46 0
19 -34 -46 0
-19 -34 46 0
19 34 46 0
-19 34 -46 0
-30 38 0
-17 -30 0
17 30 -38 0
-13 17 -38 0
-13 -17 38 0
13 17 38 0
13 -17 -38 0
-12 30 0
-12 -15 0
12 15 -30 0
-11 15 -30 0
-11 -15 30 0
11 15 30 0
11 -15 -30 0
-10 12 0
-10 -59 0
10 -12 59 0
-9 -12 59 0
-9 12 -59 0
9 12 59 0
9 -12 -59 0
-8 10 0
-8 -14 0
8 -10 14 0
-7 -10 14 0
-7 10 -14 0
7 10 14 0
7 -10 -14 0
-6 90 0
-6 93 0
6 -90 -93 0
-90 93 0
90 -93 0
5 -72 -96 0
5 -6 -72 0
5 -6 -96 0
-5 72 96 0
-5 6 72 0
-5 6 96 0
-5 72 0
-5 96 0
-5 6 0
6 72 96 0
4 -27 -84 0
4 -5 -84 0
4 -5 -27 0
-4 27 84 0
-4 5 84 0
-4 5 27 0
-4 84 0
-4 27 0
-4 5 0
5 27 84 0
3 -25 -91 0
3 -4 -91 0
3 -4 -25 0
-3 25 91 0
-3 4 91 0
-3 4 25 0
3 -91 0
3 -25 0
3 -4 0
-4 -25 -91 0
2 -23 -97 0
2 -3 -97 0
2 -3 -23 0
-2 23 97 0
-2 3 97 0
-2 3 23 0
-2 97 0
-2 23 0
-2 3 0
3 23 97 0
1 -21 -101 0
1 -2 -101 0
1 -2 -21 0
-1 21 101 0
-1 2 101 0
-1 2 21 0
1 -101 0
1 -21 0
1 -2 0
-2 -21 -101 0
-19 80 -103 0
-1 80 -103 0
-1 -19 80 0
19 -80 103 0
1 -80 103 0
1 19 -80 0
80 -103 0
-19 80 0
-1 80 0
-1 -19 -103 0
-17 68 -105 0
68 -80 -105 0
-17 68 -80 0
17 -68 105 0
-68 80 105 0
17 -68 80 0
68 -105 0
-17 68 0
68 -80 0
-17 -80 -105 0
-15 75 -107 0
-68 75 -107 0
-15 -68 75 0
15 -75 107 0
68 -75 107 0
15 68 -75 0
75 -107 0
-15 75 0
-68 75 0
-15 -68 -107 0
-59 62 -106 0
62 -75 -106 0
-59 62 -75 0
59 -62 106 0
-62 75 106 0
59 -62 75 0
62 -106 0
-59 62 0
62 -75 0
-59 -75 -106 0
-14 -62 0
-14 62 0
14 -62 0
